c
c Generated WCNF file
c
p wcnf 211 991 48138
48138 21 0
48138 -22 1 0
48138 -22 2 0
48138 22 -1 -2 0
48138 -23 1 0
48138 -23 3 0
48138 23 -1 -3 0
48138 -24 1 0
48138 -24 4 0
48138 24 -1 -4 0
48138 -25 1 0
48138 -25 5 0
48138 25 -1 -5 0
48138 -26 1 0
48138 -26 6 0
48138 26 -1 -6 0
48138 -27 1 0
48138 -27 7 0
48138 27 -1 -7 0
48138 -28 1 0
48138 -28 8 0
48138 28 -1 -8 0
48138 -29 1 0
48138 -29 9 0
48138 29 -1 -9 0
48138 -30 1 0
48138 -30 10 0
48138 30 -1 -10 0
48138 -31 1 0
48138 -31 11 0
48138 31 -1 -11 0
48138 -32 1 0
48138 -32 12 0
48138 32 -1 -12 0
48138 -33 1 0
48138 -33 13 0
48138 33 -1 -13 0
48138 -34 1 0
48138 -34 14 0
48138 34 -1 -14 0
48138 -35 1 0
48138 -35 15 0
48138 35 -1 -15 0
48138 -36 1 0
48138 -36 16 0
48138 36 -1 -16 0
48138 -37 1 0
48138 -37 17 0
48138 37 -1 -17 0
48138 -38 1 0
48138 -38 18 0
48138 38 -1 -18 0
48138 -39 1 0
48138 -39 19 0
48138 39 -1 -19 0
48138 -40 1 0
48138 -40 20 0
48138 40 -1 -20 0
48138 -41 2 0
48138 -41 3 0
48138 41 -2 -3 0
48138 -42 2 0
48138 -42 4 0
48138 42 -2 -4 0
48138 -43 2 0
48138 -43 5 0
48138 43 -2 -5 0
48138 -44 2 0
48138 -44 6 0
48138 44 -2 -6 0
48138 -45 2 0
48138 -45 7 0
48138 45 -2 -7 0
48138 -46 2 0
48138 -46 8 0
48138 46 -2 -8 0
48138 -47 2 0
48138 -47 9 0
48138 47 -2 -9 0
48138 -48 2 0
48138 -48 10 0
48138 48 -2 -10 0
48138 -49 2 0
48138 -49 11 0
48138 49 -2 -11 0
48138 -50 2 0
48138 -50 12 0
48138 50 -2 -12 0
48138 -51 2 0
48138 -51 13 0
48138 51 -2 -13 0
48138 -52 2 0
48138 -52 14 0
48138 52 -2 -14 0
48138 -53 2 0
48138 -53 15 0
48138 53 -2 -15 0
48138 -54 2 0
48138 -54 16 0
48138 54 -2 -16 0
48138 -55 2 0
48138 -55 17 0
48138 55 -2 -17 0
48138 -56 2 0
48138 -56 18 0
48138 56 -2 -18 0
48138 -57 2 0
48138 -57 19 0
48138 57 -2 -19 0
48138 -58 2 0
48138 -58 20 0
48138 58 -2 -20 0
48138 -59 3 0
48138 -59 4 0
48138 59 -3 -4 0
48138 -60 3 0
48138 -60 5 0
48138 60 -3 -5 0
48138 -61 3 0
48138 -61 6 0
48138 61 -3 -6 0
48138 -62 3 0
48138 -62 7 0
48138 62 -3 -7 0
48138 -63 3 0
48138 -63 8 0
48138 63 -3 -8 0
48138 -64 3 0
48138 -64 9 0
48138 64 -3 -9 0
48138 -65 3 0
48138 -65 10 0
48138 65 -3 -10 0
48138 -66 3 0
48138 -66 11 0
48138 66 -3 -11 0
48138 -67 3 0
48138 -67 12 0
48138 67 -3 -12 0
48138 -68 3 0
48138 -68 13 0
48138 68 -3 -13 0
48138 -69 3 0
48138 -69 14 0
48138 69 -3 -14 0
48138 -70 3 0
48138 -70 15 0
48138 70 -3 -15 0
48138 -71 3 0
48138 -71 16 0
48138 71 -3 -16 0
48138 -72 3 0
48138 -72 17 0
48138 72 -3 -17 0
48138 -73 3 0
48138 -73 18 0
48138 73 -3 -18 0
48138 -74 3 0
48138 -74 19 0
48138 74 -3 -19 0
48138 -75 3 0
48138 -75 20 0
48138 75 -3 -20 0
48138 -76 4 0
48138 -76 5 0
48138 76 -4 -5 0
48138 -77 4 0
48138 -77 6 0
48138 77 -4 -6 0
48138 -78 4 0
48138 -78 7 0
48138 78 -4 -7 0
48138 -79 4 0
48138 -79 8 0
48138 79 -4 -8 0
48138 -80 4 0
48138 -80 9 0
48138 80 -4 -9 0
48138 -81 4 0
48138 -81 10 0
48138 81 -4 -10 0
48138 -82 4 0
48138 -82 11 0
48138 82 -4 -11 0
48138 -83 4 0
48138 -83 12 0
48138 83 -4 -12 0
48138 -84 4 0
48138 -84 13 0
48138 84 -4 -13 0
48138 -85 4 0
48138 -85 14 0
48138 85 -4 -14 0
48138 -86 4 0
48138 -86 15 0
48138 86 -4 -15 0
48138 -87 4 0
48138 -87 16 0
48138 87 -4 -16 0
48138 -88 4 0
48138 -88 17 0
48138 88 -4 -17 0
48138 -89 4 0
48138 -89 18 0
48138 89 -4 -18 0
48138 -90 4 0
48138 -90 19 0
48138 90 -4 -19 0
48138 -91 4 0
48138 -91 20 0
48138 91 -4 -20 0
48138 -92 5 0
48138 -92 6 0
48138 92 -5 -6 0
48138 -93 5 0
48138 -93 7 0
48138 93 -5 -7 0
48138 -94 5 0
48138 -94 8 0
48138 94 -5 -8 0
48138 -95 5 0
48138 -95 9 0
48138 95 -5 -9 0
48138 -96 5 0
48138 -96 10 0
48138 96 -5 -10 0
48138 -97 5 0
48138 -97 11 0
48138 97 -5 -11 0
48138 -98 5 0
48138 -98 12 0
48138 98 -5 -12 0
48138 -99 5 0
48138 -99 13 0
48138 99 -5 -13 0
48138 -100 5 0
48138 -100 14 0
48138 100 -5 -14 0
48138 -101 5 0
48138 -101 15 0
48138 101 -5 -15 0
48138 -102 5 0
48138 -102 16 0
48138 102 -5 -16 0
48138 -103 5 0
48138 -103 17 0
48138 103 -5 -17 0
48138 -104 5 0
48138 -104 18 0
48138 104 -5 -18 0
48138 -105 5 0
48138 -105 19 0
48138 105 -5 -19 0
48138 -106 5 0
48138 -106 20 0
48138 106 -5 -20 0
48138 -107 6 0
48138 -107 7 0
48138 107 -6 -7 0
48138 -108 6 0
48138 -108 8 0
48138 108 -6 -8 0
48138 -109 6 0
48138 -109 9 0
48138 109 -6 -9 0
48138 -110 6 0
48138 -110 10 0
48138 110 -6 -10 0
48138 -111 6 0
48138 -111 11 0
48138 111 -6 -11 0
48138 -112 6 0
48138 -112 12 0
48138 112 -6 -12 0
48138 -113 6 0
48138 -113 13 0
48138 113 -6 -13 0
48138 -114 6 0
48138 -114 14 0
48138 114 -6 -14 0
48138 -115 6 0
48138 -115 15 0
48138 115 -6 -15 0
48138 -116 6 0
48138 -116 16 0
48138 116 -6 -16 0
48138 -117 6 0
48138 -117 17 0
48138 117 -6 -17 0
48138 -118 6 0
48138 -118 18 0
48138 118 -6 -18 0
48138 -119 6 0
48138 -119 19 0
48138 119 -6 -19 0
48138 -120 6 0
48138 -120 20 0
48138 120 -6 -20 0
48138 -121 7 0
48138 -121 8 0
48138 121 -7 -8 0
48138 -122 7 0
48138 -122 9 0
48138 122 -7 -9 0
48138 -123 7 0
48138 -123 10 0
48138 123 -7 -10 0
48138 -124 7 0
48138 -124 11 0
48138 124 -7 -11 0
48138 -125 7 0
48138 -125 12 0
48138 125 -7 -12 0
48138 -126 7 0
48138 -126 13 0
48138 126 -7 -13 0
48138 -127 7 0
48138 -127 14 0
48138 127 -7 -14 0
48138 -128 7 0
48138 -128 15 0
48138 128 -7 -15 0
48138 -129 7 0
48138 -129 16 0
48138 129 -7 -16 0
48138 -130 7 0
48138 -130 17 0
48138 130 -7 -17 0
48138 -131 7 0
48138 -131 18 0
48138 131 -7 -18 0
48138 -132 7 0
48138 -132 19 0
48138 132 -7 -19 0
48138 -133 7 0
48138 -133 20 0
48138 133 -7 -20 0
48138 -134 8 0
48138 -134 9 0
48138 134 -8 -9 0
48138 -135 8 0
48138 -135 10 0
48138 135 -8 -10 0
48138 -136 8 0
48138 -136 11 0
48138 136 -8 -11 0
48138 -137 8 0
48138 -137 12 0
48138 137 -8 -12 0
48138 -138 8 0
48138 -138 13 0
48138 138 -8 -13 0
48138 -139 8 0
48138 -139 14 0
48138 139 -8 -14 0
48138 -140 8 0
48138 -140 15 0
48138 140 -8 -15 0
48138 -141 8 0
48138 -141 16 0
48138 141 -8 -16 0
48138 -142 8 0
48138 -142 17 0
48138 142 -8 -17 0
48138 -143 8 0
48138 -143 18 0
48138 143 -8 -18 0
48138 -144 8 0
48138 -144 19 0
48138 144 -8 -19 0
48138 -145 8 0
48138 -145 20 0
48138 145 -8 -20 0
48138 -146 9 0
48138 -146 10 0
48138 146 -9 -10 0
48138 -147 9 0
48138 -147 11 0
48138 147 -9 -11 0
48138 -148 9 0
48138 -148 12 0
48138 148 -9 -12 0
48138 -149 9 0
48138 -149 13 0
48138 149 -9 -13 0
48138 -150 9 0
48138 -150 14 0
48138 150 -9 -14 0
48138 -151 9 0
48138 -151 15 0
48138 151 -9 -15 0
48138 -152 9 0
48138 -152 16 0
48138 152 -9 -16 0
48138 -153 9 0
48138 -153 17 0
48138 153 -9 -17 0
48138 -154 9 0
48138 -154 18 0
48138 154 -9 -18 0
48138 -155 9 0
48138 -155 19 0
48138 155 -9 -19 0
48138 -156 9 0
48138 -156 20 0
48138 156 -9 -20 0
48138 -157 10 0
48138 -157 11 0
48138 157 -10 -11 0
48138 -158 10 0
48138 -158 12 0
48138 158 -10 -12 0
48138 -159 10 0
48138 -159 13 0
48138 159 -10 -13 0
48138 -160 10 0
48138 -160 14 0
48138 160 -10 -14 0
48138 -161 10 0
48138 -161 15 0
48138 161 -10 -15 0
48138 -162 10 0
48138 -162 16 0
48138 162 -10 -16 0
48138 -163 10 0
48138 -163 17 0
48138 163 -10 -17 0
48138 -164 10 0
48138 -164 18 0
48138 164 -10 -18 0
48138 -165 10 0
48138 -165 19 0
48138 165 -10 -19 0
48138 -166 10 0
48138 -166 20 0
48138 166 -10 -20 0
48138 -167 11 0
48138 -167 12 0
48138 167 -11 -12 0
48138 -168 11 0
48138 -168 13 0
48138 168 -11 -13 0
48138 -169 11 0
48138 -169 14 0
48138 169 -11 -14 0
48138 -170 11 0
48138 -170 15 0
48138 170 -11 -15 0
48138 -171 11 0
48138 -171 16 0
48138 171 -11 -16 0
48138 -172 11 0
48138 -172 17 0
48138 172 -11 -17 0
48138 -173 11 0
48138 -173 18 0
48138 173 -11 -18 0
48138 -174 11 0
48138 -174 19 0
48138 174 -11 -19 0
48138 -175 11 0
48138 -175 20 0
48138 175 -11 -20 0
48138 -176 12 0
48138 -176 13 0
48138 176 -12 -13 0
48138 -177 12 0
48138 -177 14 0
48138 177 -12 -14 0
48138 -178 12 0
48138 -178 15 0
48138 178 -12 -15 0
48138 -179 12 0
48138 -179 16 0
48138 179 -12 -16 0
48138 -180 12 0
48138 -180 17 0
48138 180 -12 -17 0
48138 -181 12 0
48138 -181 18 0
48138 181 -12 -18 0
48138 -182 12 0
48138 -182 19 0
48138 182 -12 -19 0
48138 -183 12 0
48138 -183 20 0
48138 183 -12 -20 0
48138 -184 13 0
48138 -184 14 0
48138 184 -13 -14 0
48138 -185 13 0
48138 -185 15 0
48138 185 -13 -15 0
48138 -186 13 0
48138 -186 16 0
48138 186 -13 -16 0
48138 -187 13 0
48138 -187 17 0
48138 187 -13 -17 0
48138 -188 13 0
48138 -188 18 0
48138 188 -13 -18 0
48138 -189 13 0
48138 -189 19 0
48138 189 -13 -19 0
48138 -190 13 0
48138 -190 20 0
48138 190 -13 -20 0
48138 -191 14 0
48138 -191 15 0
48138 191 -14 -15 0
48138 -192 14 0
48138 -192 16 0
48138 192 -14 -16 0
48138 -193 14 0
48138 -193 17 0
48138 193 -14 -17 0
48138 -194 14 0
48138 -194 18 0
48138 194 -14 -18 0
48138 -195 14 0
48138 -195 19 0
48138 195 -14 -19 0
48138 -196 14 0
48138 -196 20 0
48138 196 -14 -20 0
48138 -197 15 0
48138 -197 16 0
48138 197 -15 -16 0
48138 -198 15 0
48138 -198 17 0
48138 198 -15 -17 0
48138 -199 15 0
48138 -199 18 0
48138 199 -15 -18 0
48138 -200 15 0
48138 -200 19 0
48138 200 -15 -19 0
48138 -201 15 0
48138 -201 20 0
48138 201 -15 -20 0
48138 -202 16 0
48138 -202 17 0
48138 202 -16 -17 0
48138 -203 16 0
48138 -203 18 0
48138 203 -16 -18 0
48138 -204 16 0
48138 -204 19 0
48138 204 -16 -19 0
48138 -205 16 0
48138 -205 20 0
48138 205 -16 -20 0
48138 -206 17 0
48138 -206 18 0
48138 206 -17 -18 0
48138 -207 17 0
48138 -207 19 0
48138 207 -17 -19 0
48138 -208 17 0
48138 -208 20 0
48138 208 -17 -20 0
48138 -209 18 0
48138 -209 19 0
48138 209 -18 -19 0
48138 -210 18 0
48138 -210 20 0
48138 210 -18 -20 0
48138 -211 19 0
48138 -211 20 0
48138 211 -19 -20 0
41617 1 0
48128 -1 0
44496 22 0
48128 -22 0
49604 23 0
48128 -23 0
41578 24 0
48128 -24 0
38208 25 0
48128 -25 0
49486 26 0
48128 -26 0
32584 27 0
48128 -27 0
33902 28 0
48128 -28 0
42086 29 0
48128 -29 0
51686 30 0
48128 -30 0
47568 31 0
48128 -31 0
46330 32 0
48128 -32 0
42182 33 0
48128 -33 0
53302 34 0
48128 -34 0
51798 35 0
48128 -35 0
51044 36 0
48128 -36 0
51622 37 0
48128 -37 0
46104 38 0
48128 -38 0
45214 39 0
48128 -39 0
47668 40 0
48128 -40 0
72138 2 0
48128 -2 0
52090 41 0
48128 -41 0
23112 42 0
48128 -42 0
42110 43 0
48128 -43 0
52416 44 0
48128 -44 0
48454 45 0
48128 -45 0
42104 46 0
48128 -46 0
46766 47 0
48128 -47 0
57858 48 0
48128 -48 0
54722 49 0
48128 -49 0
55430 50 0
48128 -50 0
39140 51 0
48128 -51 0
59854 52 0
48128 -52 0
51572 53 0
48128 -53 0
39228 54 0
48128 -54 0
46502 55 0
48128 -55 0
53344 56 0
48128 -56 0
46340 57 0
48128 -57 0
48908 58 0
48128 -58 0
33006 3 0
48128 -3 0
54588 59 0
48128 -59 0
50220 60 0
48128 -60 0
53742 61 0
48128 -61 0
54084 62 0
48128 -62 0
45602 63 0
48128 -63 0
56168 64 0
48128 -64 0
49542 65 0
48128 -65 0
47818 66 0
48128 -66 0
46068 67 0
48128 -67 0
50214 68 0
48128 -68 0
46064 69 0
48128 -69 0
49540 70 0
48128 -70 0
56152 71 0
48128 -71 0
55242 72 0
48128 -72 0
47144 73 0
48128 -73 0
51202 74 0
48128 -74 0
48288 75 0
48128 -75 0
58591 4 0
48128 -4 0
37088 76 0
48128 -76 0
51900 77 0
48128 -77 0
55226 78 0
48128 -78 0
46700 79 0
48128 -79 0
50364 80 0
48128 -80 0
47884 81 0
48128 -81 0
53142 82 0
48128 -82 0
47352 83 0
48128 -83 0
38616 84 0
48128 -84 0
63174 85 0
48128 -85 0
50012 86 0
48128 -86 0
39058 87 0
48128 -87 0
46876 88 0
48128 -88 0
53784 89 0
48128 -89 0
47042 90 0
48128 -90 0
49088 91 0
48128 -91 0
44151 5 0
48128 -5 0
47948 92 0
48128 -92 0
43090 93 0
48128 -93 0
48518 94 0
48128 -94 0
53970 95 0
48128 -95 0
52432 96 0
48128 -96 0
56956 97 0
48128 -97 0
46718 98 0
48128 -98 0
39016 99 0
48128 -99 0
58296 100 0
48128 -100 0
51516 101 0
48128 -101 0
41952 102 0
48128 -102 0
45710 103 0
48128 -103 0
52816 104 0
48128 -104 0
47320 105 0
48128 -105 0
48908 106 0
48128 -106 0
29994 6 0
48128 -6 0
48660 107 0
48128 -107 0
49374 108 0
48128 -108 0
46596 109 0
48128 -109 0
38626 110 0
48128 -110 0
54590 111 0
48128 -111 0
37940 112 0
48128 -112 0
46450 113 0
48128 -113 0
49726 114 0
48128 -114 0
51002 115 0
48128 -115 0
50576 116 0
48128 -116 0
49996 117 0
48128 -117 0
50776 118 0
48128 -118 0
50602 119 0
48128 -119 0
48888 120 0
48128 -120 0
36605 7 0
48128 -7 0
44996 121 0
48128 -121 0
47270 122 0
48128 -122 0
51438 123 0
48128 -123 0
50870 124 0
48128 -124 0
55168 125 0
48128 -125 0
43052 126 0
48128 -126 0
47134 127 0
48128 -127 0
52244 128 0
48128 -128 0
47392 129 0
48128 -129 0
45568 130 0
48128 -130 0
46672 131 0
48128 -131 0
45004 132 0
48128 -132 0
47668 133 0
48128 -133 0
62132 8 0
48128 -8 0
42138 134 0
48128 -134 0
56718 135 0
48128 -135 0
50294 136 0
48128 -136 0
48656 137 0
48128 -137 0
45684 138 0
48128 -138 0
50566 139 0
48128 -139 0
49628 140 0
48128 -140 0
48756 141 0
48128 -141 0
49594 142 0
48128 -142 0
46824 143 0
48128 -143 0
45666 144 0
48128 -144 0
47748 145 0
48128 -145 0
47741 9 0
48128 -9 0
47002 146 0
48128 -146 0
42742 147 0
48128 -147 0
50212 148 0
48128 -148 0
50956 149 0
48128 -149 0
43384 150 0
48128 -150 0
48044 151 0
48128 -151 0
49884 152 0
48128 -152 0
47680 153 0
48128 -153 0
45424 154 0
48128 -154 0
46324 155 0
48128 -155 0
47468 156 0
48128 -156 0
18300 10 0
48128 -10 0
43308 157 0
48128 -157 0
40312 158 0
48128 -158 0
50530 159 0
48128 -159 0
46316 160 0
48128 -160 0
46798 161 0
48128 -161 0
51336 162 0
48128 -162 0
49640 163 0
48128 -163 0
47144 164 0
48128 -164 0
50750 165 0
48128 -165 0
48208 166 0
48128 -166 0
32673 11 0
48128 -11 0
48088 167 0
48128 -167 0
55982 168 0
48128 -168 0
42140 169 0
48128 -169 0
42652 170 0
48128 -170 0
53524 171 0
48128 -171 0
51588 172 0
48128 -172 0
42656 173 0
48128 -173 0
49136 174 0
48128 -174 0
47148 175 0
48128 -175 0
28819 12 0
48128 -12 0
51950 176 0
48128 -176 0
47782 177 0
48128 -177 0
42870 178 0
48128 -178 0
52652 179 0
48128 -179 0
47208 180 0
48128 -180 0
49792 181 0
48128 -181 0
51744 182 0
48128 -182 0
48768 183 0
48128 -183 0
52646 13 0
48128 -13 0
58418 184 0
48128 -184 0
55490 185 0
48128 -185 0
42900 186 0
48128 -186 0
43672 187 0
48128 -187 0
53488 188 0
48128 -188 0
44964 189 0
48128 -189 0
48968 190 0
48128 -190 0
27144 14 0
48128 -14 0
44782 191 0
48128 -191 0
54128 192 0
48128 -192 0
47704 193 0
48128 -193 0
43792 194 0
48128 -194 0
48812 195 0
48128 -195 0
47388 196 0
48128 -196 0
39700 15 0
48128 -15 0
48848 197 0
48128 -197 0
48552 198 0
48128 -198 0
45304 199 0
48128 -199 0
49818 200 0
48128 -200 0
47628 201 0
48128 -201 0
52027 16 0
48128 -16 0
42842 202 0
48128 -202 0
51424 203 0
48128 -203 0
46180 204 0
48128 -204 0
48508 205 0
48128 -205 0
42409 17 0
48128 -17 0
52096 206 0
48128 -206 0
44836 207 0
48128 -207 0
48648 208 0
48128 -208 0
41616 18 0
48128 -18 0
48584 209 0
48128 -209 0
47168 210 0
48128 -210 0
51059 19 0
48128 -19 0
48048 211 0
48128 -211 0
47608 20 0
48128 -20 0
